NAME 
ROWS
 N  OBJ
 G  R0      
 G  R1      
 G  R2      
 G  R3      
 G  R4      
 G  R5      
 G  R6      
 G  R7      
 G  R8      
 G  R9      
 G  R10     
 G  R11     
 G  R12     
 G  R13     
 G  R14     
 G  R15     
 G  R16     
 G  R17     
 G  R18     
 G  R19     
 G  R20     
 G  R21     
 G  R22     
 G  R23     
 G  R24     
 G  R25     
 G  R26     
 G  R27     
 G  R28     
 G  R29     
 G  R30     
 G  R31     
 G  R32     
 G  R33     
 G  R34     
 G  R35     
 G  R36     
 G  R37     
 G  R38     
 G  R39     
 G  R40     
 G  R41     
 G  R42     
 G  R43     
 G  R44     
 G  R45     
 G  R46     
 G  R47     
COLUMNS
    x0        OBJ       1
    x0        R0        1
    x0        R10       1
    x0        R11       1
    x0        R16       1
    x0        R17       1
    x0        R19       1
    x0        R20       1
    x0        R21       1
    x0        R28       1
    x0        R29       1
    x0        R31       1
    x0        R32       1
    x0        R33       1
    x0        R37       1
    x0        R38       1
    x0        R39       1
    x0        R42       1
    x1        OBJ       1
    x1        R1        1
    x1        R9        1
    x1        R11       1
    x1        R15       1
    x1        R17       1
    x1        R18       1
    x1        R20       1
    x1        R22       1
    x1        R27       1
    x1        R29       1
    x1        R30       1
    x1        R32       1
    x1        R34       1
    x1        R36       1
    x1        R38       1
    x1        R40       1
    x1        R43       1
    x2        OBJ       1
    x2        R2        1
    x2        R9        1
    x2        R10       1
    x2        R15       1
    x2        R16       1
    x2        R18       1
    x2        R19       1
    x2        R23       1
    x2        R27       1
    x2        R28       1
    x2        R30       1
    x2        R31       1
    x2        R35       1
    x2        R36       1
    x2        R37       1
    x2        R41       1
    x2        R44       1
    x3        OBJ       1
    x3        R3        1
    x3        R7        1
    x3        R8        1
    x3        R13       1
    x3        R14       1
    x3        R18       1
    x3        R22       1
    x3        R23       1
    x3        R25       1
    x3        R26       1
    x3        R30       1
    x3        R34       1
    x3        R35       1
    x3        R36       1
    x3        R40       1
    x3        R41       1
    x3        R45       1
    x4        OBJ       1
    x4        R4        1
    x4        R6        1
    x4        R8        1
    x4        R12       1
    x4        R14       1
    x4        R19       1
    x4        R21       1
    x4        R23       1
    x4        R24       1
    x4        R26       1
    x4        R31       1
    x4        R33       1
    x4        R35       1
    x4        R37       1
    x4        R39       1
    x4        R41       1
    x4        R46       1
    x5        OBJ       1
    x5        R5        1
    x5        R6        1
    x5        R7        1
    x5        R12       1
    x5        R13       1
    x5        R20       1
    x5        R21       1
    x5        R22       1
    x5        R24       1
    x5        R25       1
    x5        R32       1
    x5        R33       1
    x5        R34       1
    x5        R38       1
    x5        R39       1
    x5        R40       1
    x5        R47       1
    x6        OBJ       1
    x6        R4        1
    x6        R5        1
    x6        R6        1
    x6        R13       1
    x6        R14       1
    x6        R15       1
    x6        R22       1
    x6        R23       1
    x6        R25       1
    x6        R26       1
    x6        R27       1
    x6        R34       1
    x6        R35       1
    x6        R36       1
    x6        R43       1
    x6        R44       1
    x6        R45       1
    x7        OBJ       1
    x7        R3        1
    x7        R5        1
    x7        R7        1
    x7        R12       1
    x7        R14       1
    x7        R16       1
    x7        R21       1
    x7        R23       1
    x7        R24       1
    x7        R26       1
    x7        R28       1
    x7        R33       1
    x7        R35       1
    x7        R37       1
    x7        R42       1
    x7        R44       1
    x7        R46       1
    x8        OBJ       1
    x8        R3        1
    x8        R4        1
    x8        R8        1
    x8        R12       1
    x8        R13       1
    x8        R17       1
    x8        R21       1
    x8        R22       1
    x8        R24       1
    x8        R25       1
    x8        R29       1
    x8        R33       1
    x8        R34       1
    x8        R38       1
    x8        R42       1
    x8        R43       1
    x8        R47       1
    x9        OBJ       1
    x9        R1        1
    x9        R2        1
    x9        R9        1
    x9        R12       1
    x9        R16       1
    x9        R17       1
    x9        R19       1
    x9        R20       1
    x9        R24       1
    x9        R28       1
    x9        R29       1
    x9        R31       1
    x9        R32       1
    x9        R39       1
    x9        R42       1
    x9        R46       1
    x9        R47       1
    x10       OBJ       1
    x10       R0        1
    x10       R2        1
    x10       R10       1
    x10       R13       1
    x10       R15       1
    x10       R17       1
    x10       R18       1
    x10       R20       1
    x10       R25       1
    x10       R27       1
    x10       R29       1
    x10       R30       1
    x10       R32       1
    x10       R40       1
    x10       R43       1
    x10       R45       1
    x10       R47       1
    x11       OBJ       1
    x11       R0        1
    x11       R1        1
    x11       R11       1
    x11       R14       1
    x11       R15       1
    x11       R16       1
    x11       R18       1
    x11       R19       1
    x11       R26       1
    x11       R27       1
    x11       R28       1
    x11       R30       1
    x11       R31       1
    x11       R41       1
    x11       R44       1
    x11       R45       1
    x11       R46       1
    x12       OBJ       1
    x12       R4        1
    x12       R5        1
    x12       R7        1
    x12       R8        1
    x12       R9        1
    x12       R12       1
    x12       R22       1
    x12       R23       1
    x12       R25       1
    x12       R26       1
    x12       R27       1
    x12       R30       1
    x12       R40       1
    x12       R41       1
    x12       R43       1
    x12       R44       1
    x12       R45       1
    x13       OBJ       1
    x13       R3        1
    x13       R5        1
    x13       R6        1
    x13       R8        1
    x13       R10       1
    x13       R13       1
    x13       R21       1
    x13       R23       1
    x13       R24       1
    x13       R26       1
    x13       R28       1
    x13       R31       1
    x13       R39       1
    x13       R41       1
    x13       R42       1
    x13       R44       1
    x13       R46       1
    x14       OBJ       1
    x14       R3        1
    x14       R4        1
    x14       R6        1
    x14       R7        1
    x14       R11       1
    x14       R14       1
    x14       R21       1
    x14       R22       1
    x14       R24       1
    x14       R25       1
    x14       R29       1
    x14       R32       1
    x14       R39       1
    x14       R40       1
    x14       R42       1
    x14       R43       1
    x14       R47       1
    x15       OBJ       1
    x15       R1        1
    x15       R2        1
    x15       R6        1
    x15       R10       1
    x15       R11       1
    x15       R15       1
    x15       R19       1
    x15       R20       1
    x15       R24       1
    x15       R28       1
    x15       R29       1
    x15       R33       1
    x15       R37       1
    x15       R38       1
    x15       R42       1
    x15       R46       1
    x15       R47       1
    x16       OBJ       1
    x16       R0        1
    x16       R2        1
    x16       R7        1
    x16       R9        1
    x16       R11       1
    x16       R16       1
    x16       R18       1
    x16       R20       1
    x16       R25       1
    x16       R27       1
    x16       R29       1
    x16       R34       1
    x16       R36       1
    x16       R38       1
    x16       R43       1
    x16       R45       1
    x16       R47       1
    x17       OBJ       1
    x17       R0        1
    x17       R1        1
    x17       R8        1
    x17       R9        1
    x17       R10       1
    x17       R17       1
    x17       R18       1
    x17       R19       1
    x17       R26       1
    x17       R27       1
    x17       R28       1
    x17       R35       1
    x17       R36       1
    x17       R37       1
    x17       R44       1
    x17       R45       1
    x17       R46       1
    x18       OBJ       1
    x18       R1        1
    x18       R2        1
    x18       R3        1
    x18       R10       1
    x18       R11       1
    x18       R16       1
    x18       R17       1
    x18       R18       1
    x18       R24       1
    x18       R31       1
    x18       R32       1
    x18       R33       1
    x18       R37       1
    x18       R38       1
    x18       R39       1
    x18       R46       1
    x18       R47       1
    x19       OBJ       1
    x19       R0        1
    x19       R2        1
    x19       R4        1
    x19       R9        1
    x19       R11       1
    x19       R15       1
    x19       R17       1
    x19       R19       1
    x19       R25       1
    x19       R30       1
    x19       R32       1
    x19       R34       1
    x19       R36       1
    x19       R38       1
    x19       R40       1
    x19       R45       1
    x19       R47       1
    x20       OBJ       1
    x20       R0        1
    x20       R1        1
    x20       R5        1
    x20       R9        1
    x20       R10       1
    x20       R15       1
    x20       R16       1
    x20       R20       1
    x20       R26       1
    x20       R30       1
    x20       R31       1
    x20       R35       1
    x20       R36       1
    x20       R37       1
    x20       R41       1
    x20       R45       1
    x20       R46       1
    x21       OBJ       1
    x21       R0        1
    x21       R4        1
    x21       R5        1
    x21       R7        1
    x21       R8        1
    x21       R13       1
    x21       R14       1
    x21       R21       1
    x21       R27       1
    x21       R30       1
    x21       R34       1
    x21       R35       1
    x21       R36       1
    x21       R40       1
    x21       R41       1
    x21       R43       1
    x21       R44       1
    x22       OBJ       1
    x22       R1        1
    x22       R3        1
    x22       R5        1
    x22       R6        1
    x22       R8        1
    x22       R12       1
    x22       R14       1
    x22       R22       1
    x22       R28       1
    x22       R31       1
    x22       R33       1
    x22       R35       1
    x22       R37       1
    x22       R39       1
    x22       R41       1
    x22       R42       1
    x22       R44       1
    x23       OBJ       1
    x23       R2        1
    x23       R3        1
    x23       R4        1
    x23       R6        1
    x23       R7        1
    x23       R12       1
    x23       R13       1
    x23       R23       1
    x23       R29       1
    x23       R32       1
    x23       R33       1
    x23       R34       1
    x23       R38       1
    x23       R39       1
    x23       R40       1
    x23       R42       1
    x23       R43       1
    x24       OBJ       1
    x24       R4        1
    x24       R5        1
    x24       R7        1
    x24       R8        1
    x24       R9        1
    x24       R13       1
    x24       R14       1
    x24       R15       1
    x24       R18       1
    x24       R24       1
    x24       R34       1
    x24       R35       1
    x24       R40       1
    x24       R41       1
    x24       R43       1
    x24       R44       1
    x24       R45       1
    x25       OBJ       1
    x25       R3        1
    x25       R5        1
    x25       R6        1
    x25       R8        1
    x25       R10       1
    x25       R12       1
    x25       R14       1
    x25       R16       1
    x25       R19       1
    x25       R25       1
    x25       R33       1
    x25       R35       1
    x25       R39       1
    x25       R41       1
    x25       R42       1
    x25       R44       1
    x25       R46       1
    x26       OBJ       1
    x26       R3        1
    x26       R4        1
    x26       R6        1
    x26       R7        1
    x26       R11       1
    x26       R12       1
    x26       R13       1
    x26       R17       1
    x26       R20       1
    x26       R26       1
    x26       R33       1
    x26       R34       1
    x26       R39       1
    x26       R40       1
    x26       R42       1
    x26       R43       1
    x26       R47       1
    x27       OBJ       1
    x27       R1        1
    x27       R2        1
    x27       R6        1
    x27       R10       1
    x27       R11       1
    x27       R12       1
    x27       R16       1
    x27       R17       1
    x27       R21       1
    x27       R27       1
    x27       R31       1
    x27       R32       1
    x27       R37       1
    x27       R38       1
    x27       R42       1
    x27       R46       1
    x27       R47       1
    x28       OBJ       1
    x28       R0        1
    x28       R2        1
    x28       R7        1
    x28       R9        1
    x28       R11       1
    x28       R13       1
    x28       R15       1
    x28       R17       1
    x28       R22       1
    x28       R28       1
    x28       R30       1
    x28       R32       1
    x28       R36       1
    x28       R38       1
    x28       R43       1
    x28       R45       1
    x28       R47       1
    x29       OBJ       1
    x29       R0        1
    x29       R1        1
    x29       R8        1
    x29       R9        1
    x29       R10       1
    x29       R14       1
    x29       R15       1
    x29       R16       1
    x29       R23       1
    x29       R29       1
    x29       R30       1
    x29       R31       1
    x29       R36       1
    x29       R37       1
    x29       R44       1
    x29       R45       1
    x29       R46       1
    x30       OBJ       1
    x30       R1        1
    x30       R2        1
    x30       R3        1
    x30       R10       1
    x30       R11       1
    x30       R12       1
    x30       R19       1
    x30       R20       1
    x30       R21       1
    x30       R28       1
    x30       R29       1
    x30       R30       1
    x30       R37       1
    x30       R38       1
    x30       R39       1
    x30       R46       1
    x30       R47       1
    x31       OBJ       1
    x31       R0        1
    x31       R2        1
    x31       R4        1
    x31       R9        1
    x31       R11       1
    x31       R13       1
    x31       R18       1
    x31       R20       1
    x31       R22       1
    x31       R27       1
    x31       R29       1
    x31       R31       1
    x31       R36       1
    x31       R38       1
    x31       R40       1
    x31       R45       1
    x31       R47       1
    x32       OBJ       1
    x32       R0        1
    x32       R1        1
    x32       R5        1
    x32       R9        1
    x32       R10       1
    x32       R14       1
    x32       R18       1
    x32       R19       1
    x32       R23       1
    x32       R27       1
    x32       R28       1
    x32       R32       1
    x32       R36       1
    x32       R37       1
    x32       R41       1
    x32       R45       1
    x32       R46       1
    x33       OBJ       1
    x33       R0        1
    x33       R4        1
    x33       R5        1
    x33       R7        1
    x33       R8        1
    x33       R15       1
    x33       R18       1
    x33       R22       1
    x33       R23       1
    x33       R25       1
    x33       R26       1
    x33       R33       1
    x33       R36       1
    x33       R40       1
    x33       R41       1
    x33       R43       1
    x33       R44       1
    x34       OBJ       1
    x34       R1        1
    x34       R3        1
    x34       R5        1
    x34       R6        1
    x34       R8        1
    x34       R16       1
    x34       R19       1
    x34       R21       1
    x34       R23       1
    x34       R24       1
    x34       R26       1
    x34       R34       1
    x34       R37       1
    x34       R39       1
    x34       R41       1
    x34       R42       1
    x34       R44       1
    x35       OBJ       1
    x35       R2        1
    x35       R3        1
    x35       R4        1
    x35       R6        1
    x35       R7        1
    x35       R17       1
    x35       R20       1
    x35       R21       1
    x35       R22       1
    x35       R24       1
    x35       R25       1
    x35       R35       1
    x35       R38       1
    x35       R39       1
    x35       R40       1
    x35       R42       1
    x35       R43       1
    x36       OBJ       1
    x36       R1        1
    x36       R2        1
    x36       R3        1
    x36       R6        1
    x36       R16       1
    x36       R17       1
    x36       R19       1
    x36       R20       1
    x36       R21       1
    x36       R28       1
    x36       R29       1
    x36       R31       1
    x36       R32       1
    x36       R33       1
    x36       R36       1
    x36       R46       1
    x36       R47       1
    x37       OBJ       1
    x37       R0        1
    x37       R2        1
    x37       R4        1
    x37       R7        1
    x37       R15       1
    x37       R17       1
    x37       R18       1
    x37       R20       1
    x37       R22       1
    x37       R27       1
    x37       R29       1
    x37       R30       1
    x37       R32       1
    x37       R34       1
    x37       R37       1
    x37       R45       1
    x37       R47       1
    x38       OBJ       1
    x38       R0        1
    x38       R1        1
    x38       R5        1
    x38       R8        1
    x38       R15       1
    x38       R16       1
    x38       R18       1
    x38       R19       1
    x38       R23       1
    x38       R27       1
    x38       R28       1
    x38       R30       1
    x38       R31       1
    x38       R35       1
    x38       R38       1
    x38       R45       1
    x38       R46       1
    x39       OBJ       1
    x39       R0        1
    x39       R4        1
    x39       R5        1
    x39       R9        1
    x39       R13       1
    x39       R14       1
    x39       R18       1
    x39       R22       1
    x39       R23       1
    x39       R25       1
    x39       R26       1
    x39       R30       1
    x39       R34       1
    x39       R35       1
    x39       R39       1
    x39       R43       1
    x39       R44       1
    x40       OBJ       1
    x40       R1        1
    x40       R3        1
    x40       R5        1
    x40       R10       1
    x40       R12       1
    x40       R14       1
    x40       R19       1
    x40       R21       1
    x40       R23       1
    x40       R24       1
    x40       R26       1
    x40       R31       1
    x40       R33       1
    x40       R35       1
    x40       R40       1
    x40       R42       1
    x40       R44       1
    x41       OBJ       1
    x41       R2        1
    x41       R3        1
    x41       R4        1
    x41       R11       1
    x41       R12       1
    x41       R13       1
    x41       R20       1
    x41       R21       1
    x41       R22       1
    x41       R24       1
    x41       R25       1
    x41       R32       1
    x41       R33       1
    x41       R34       1
    x41       R41       1
    x41       R42       1
    x41       R43       1
    x42       OBJ       1
    x42       R0        1
    x42       R7        1
    x42       R8        1
    x42       R9        1
    x42       R13       1
    x42       R14       1
    x42       R15       1
    x42       R22       1
    x42       R23       1
    x42       R25       1
    x42       R26       1
    x42       R27       1
    x42       R34       1
    x42       R35       1
    x42       R40       1
    x42       R41       1
    x42       R42       1
    x43       OBJ       1
    x43       R1        1
    x43       R6        1
    x43       R8        1
    x43       R10       1
    x43       R12       1
    x43       R14       1
    x43       R16       1
    x43       R21       1
    x43       R23       1
    x43       R24       1
    x43       R26       1
    x43       R28       1
    x43       R33       1
    x43       R35       1
    x43       R39       1
    x43       R41       1
    x43       R43       1
    x44       OBJ       1
    x44       R2        1
    x44       R6        1
    x44       R7        1
    x44       R11       1
    x44       R12       1
    x44       R13       1
    x44       R17       1
    x44       R21       1
    x44       R22       1
    x44       R24       1
    x44       R25       1
    x44       R29       1
    x44       R33       1
    x44       R34       1
    x44       R39       1
    x44       R40       1
    x44       R44       1
    x45       OBJ       1
    x45       R3        1
    x45       R6        1
    x45       R10       1
    x45       R11       1
    x45       R12       1
    x45       R16       1
    x45       R17       1
    x45       R19       1
    x45       R20       1
    x45       R24       1
    x45       R28       1
    x45       R29       1
    x45       R31       1
    x45       R32       1
    x45       R37       1
    x45       R38       1
    x45       R45       1
    x46       OBJ       1
    x46       R4        1
    x46       R7        1
    x46       R9        1
    x46       R11       1
    x46       R13       1
    x46       R15       1
    x46       R17       1
    x46       R18       1
    x46       R20       1
    x46       R25       1
    x46       R27       1
    x46       R29       1
    x46       R30       1
    x46       R32       1
    x46       R36       1
    x46       R38       1
    x46       R46       1
    x47       OBJ       1
    x47       R5        1
    x47       R8        1
    x47       R9        1
    x47       R10       1
    x47       R14       1
    x47       R15       1
    x47       R16       1
    x47       R18       1
    x47       R19       1
    x47       R26       1
    x47       R27       1
    x47       R28       1
    x47       R30       1
    x47       R31       1
    x47       R36       1
    x47       R37       1
    x47       R47       1
RHS
    RHS1      R0        1
    RHS1      R1        1
    RHS1      R2        1
    RHS1      R3        1
    RHS1      R4        1
    RHS1      R5        1
    RHS1      R6        1
    RHS1      R7        1
    RHS1      R8        1
    RHS1      R9        1
    RHS1      R10       1
    RHS1      R11       1
    RHS1      R12       1
    RHS1      R13       1
    RHS1      R14       1
    RHS1      R15       1
    RHS1      R16       1
    RHS1      R17       1
    RHS1      R18       1
    RHS1      R19       1
    RHS1      R20       1
    RHS1      R21       1
    RHS1      R22       1
    RHS1      R23       1
    RHS1      R24       1
    RHS1      R25       1
    RHS1      R26       1
    RHS1      R27       1
    RHS1      R28       1
    RHS1      R29       1
    RHS1      R30       1
    RHS1      R31       1
    RHS1      R32       1
    RHS1      R33       1
    RHS1      R34       1
    RHS1      R35       1
    RHS1      R36       1
    RHS1      R37       1
    RHS1      R38       1
    RHS1      R39       1
    RHS1      R40       1
    RHS1      R41       1
    RHS1      R42       1
    RHS1      R43       1
    RHS1      R44       1
    RHS1      R45       1
    RHS1      R46       1
    RHS1      R47       1
BOUNDS
 UP BND1      x0        1
 UP BND1      x1        1
 UP BND1      x2        1
 UP BND1      x3        1
 UP BND1      x4        1
 UP BND1      x5        1
 UP BND1      x6        1
 UP BND1      x7        1
 UP BND1      x8        1
 UP BND1      x9        1
 UP BND1      x10       1
 UP BND1      x11       1
 UP BND1      x12       1
 UP BND1      x13       1
 UP BND1      x14       1
 UP BND1      x15       1
 UP BND1      x16       1
 UP BND1      x17       1
 UP BND1      x18       1
 UP BND1      x19       1
 UP BND1      x20       1
 UP BND1      x21       1
 UP BND1      x22       1
 UP BND1      x23       1
 UP BND1      x24       1
 UP BND1      x25       1
 UP BND1      x26       1
 UP BND1      x27       1
 UP BND1      x28       1
 UP BND1      x29       1
 UP BND1      x30       1
 UP BND1      x31       1
 UP BND1      x32       1
 UP BND1      x33       1
 UP BND1      x34       1
 UP BND1      x35       1
 UP BND1      x36       1
 UP BND1      x37       1
 UP BND1      x38       1
 UP BND1      x39       1
 UP BND1      x40       1
 UP BND1      x41       1
 UP BND1      x42       1
 UP BND1      x43       1
 UP BND1      x44       1
 UP BND1      x45       1
 UP BND1      x46       1
 UP BND1      x47       1
ENDATA
